NAME : sko-81.-810.tour
COMMENT : Length = -810
COMMENT : Found by LKH [Keld Helsgaun] Sun Apr 13 17:05:01 2025
TYPE : TOUR
DIMENSION : 81
TOUR_SECTION
1
32
74
19
15
21
3
66
56
42
18
34
70
43
59
75
35
14
40
20
16
36
28
81
6
4
49
51
37
60
17
50
48
76
64
46
72
8
9
78
44
12
79
5
2
33
65
11
71
55
22
29
27
45
68
31
38
41
57
62
63
25
26
54
53
10
39
7
47
24
77
69
23
67
58
52
13
61
30
80
73
-1
EOF
